Geometry = xyzFormat {
12
Isopropanol
  H       2.018600000000000      2.782500000000000      0.798500000000000
  C       1.420100000000000      2.749800000000000     -0.121000000000000
  H       1.678300000000000      3.638900000000000     -0.711400000000000
  H       1.734500000000000      1.867500000000000     -0.692700000000000
  C      -0.072600000000000      2.685500000000000      0.183300000000000
  H      -0.292600000000000      1.768300000000000      0.783800000000000
  O      -0.375800000000000      3.819500000000000      0.977400000000000
  H      -1.315900000000000      3.823600000000000      1.097200000000000
  C      -0.890100000000000      2.656500000000000     -1.107100000000000
  H      -0.727800000000000      3.557800000000000     -1.713100000000000
  H      -0.612600000000000      1.791200000000000     -1.722000000000000
  H      -1.967300000000000      2.585000000000000     -0.906200000000000
}

# Driver = GeometryOptimization {
#   Optimizer = Rational {}
#   MovedAtoms = 1:-1
#   MaxSteps = 100
#   OutputPrefix = "geom.out"
#   Convergence {GradAMax = 1E-4}
#}

Hamiltonian = DFTB {
  Scc = Yes
# ThirdOrderFull = Yes
  SlaterKosterFiles = Type2FileNames {
    Prefix = "/home/maryewski/Downloads/sk-files/3ob/3ob-3-1/"
    Separator = "-"
    Suffix = ".skf"
    LowerCaseTypeName = No
  }
  MaxAngularMomentum {
    C = "p"
    O = "p"
    H = "s"
  }
#  HubbardDerivs = {
#    H = -0.1857
#    C = -0.1492
#    O = -0.1575
#    N = -0.1535
#  }
# HCorrection = Damping {
#   Exponent = 4.00
# }

  Openmmpol {
    Input = {
      Format = 'Tinker'
      GeometryFilename = "./input.xyz"
      ParametersFilename = "./amoeba09.prm"
      Solver = 3
      vdWParameters = {
          ParametersFilename = "./amoeba09.prm"
          AtomTypes = { 60 59 60 60 57 58 55 56 59 60 60 60 }
        }
    }
  }

}

Options {
  WriteDetailedOut = Yes
}

# Analysis {
#   CalculateForces = Yes
# }

ParserOptions {
  ParserVersion = 12
}
