Geometry = xyzFormat {
12
test
C               -1.574500     1.555900     0.071100
H               -1.450500     0.472400     0.138500
H               -0.726000     2.031800     0.567400
H               -2.491400     1.830900     0.597400
C               -1.644800     2.001100    -1.372000
O               -2.304300     2.957900    -1.726900
N               -0.901800     1.275600    -2.234000
H               -0.369300     0.491600    -1.882500
C               -0.819600     1.544900    -3.670900
H               -0.445600     2.559600    -3.831500
H               -0.137400     0.826800    -4.133100
H               -1.812300     1.445700    -4.118000
}
Hamiltonian = DFTB {
  Scc = Yes
  ThirdOrderFull = Yes
  SlaterKosterFiles = Type2FileNames {
    Prefix = "/home/maryewski/Downloads/sk-files/3ob/3ob-3-1/"
    Separator = "-"
    Suffix = ".skf"
    LowerCaseTypeName = No
  }
  MaxAngularMomentum = {
    C = "p"
    N = "p"
    O = "p"
    H = "s"
  }
  HubbardDerivs = {
    H = -0.1857
    C = -0.1492
    O = -0.1575
    N = -0.1535
  }
  HCorrection = Damping {
    Exponent = 4.00
  }
  Openmmpol = Input {
    Format = 'Tinker'
    GeometryFilename = "./input.xyz"
    ParametersFilename = "./amoeba09.prm"
    Solver = 3
    vdWParameters = {
      AtomTypes = {
133 134 134 134 127 128 129 130 131 132 132 132
      }
      ParametersFilename = "./amoeba09.prm"
    }
  }
  PolynomialRepulsive = {}
  ShellResolvedSCC = No
  OldSKInterpolation = No
  Hybrid = None {}
  ReadInitialCharges = No
  InitialCharges = {}
  SCCTolerance = 1.0000000000000001E-005
  ConvergentSCCOnly = Yes
  SpinPolarisation = {}
  ElectricField = {}
  Solver = RelativelyRobust {}
  Charge = 0.0000000000000000
  MaxSCCIterations = 100
  OnSiteCorrection = {}
  Dispersion = {}
  Solvation = {}
  ElectronicConstraints = {}
  Electrostatics = GammaFunctional {}
  ThirdOrder = No
  Differentiation = FiniteDiff {
    Delta = 1.2207031250000000E-004
  }
  ForceEvaluation = "Traditional"
  Mixer = Broyden {
    MixingParameter = 0.20000000000000001
    InverseJacobiWeight = 1.0000000000000000E-002
    MinimalWeight = 1.0000000000000000
    MaximalWeight = 100000.00000000000
    WeightFactor = 1.0000000000000000E-002
  }
  Filling = Fermi {
    Temperature = 0.0000000000000000
  }
}
Options = {
  WriteDetailedOut = Yes
  WriteAutotestTag = No
  WriteDetailedXML = No
  WriteResultsTag = No
  RestartFrequency = 20
  RandomSeed = 0
  WriteHS = No
  WriteRealHS = No
  MinimiseMemoryUsage = No
  ShowFoldedCoords = No
  TimingVerbosity = 1
  WriteCharges = Yes
  WriteChargesAsText = No
  BinaryAccessTypes = {
 "stream"
  }
}
ParserOptions = {
  ParserVersion = 14
  WriteHSDInput = Yes
  StopAfterParsing = No
  IgnoreUnprocessedNodes = No
}
Reks = None {}
Driver = {}
Analysis = {
  ProjectStates = {}
  WriteEigenvectors = No
  WriteBandOut = Yes
  MullikenAnalysis = Yes
  WriteNetCharges = No
  AtomResolvedEnergies = No
  PrintForces = No
}
ExcitedState = {}
